DIMENSION 15
NODE_COORD_SECTION
1 -22.0 4.4
2 -20.0 0.0
3 -18.0 -3.4
4 -15.0 -7.5
5 -10.0 -10.0
6 -5.0 -7.5
7 -2.0 -3.4
8 0.0 0.0
9 2.0 3.4
10 5.0 7.5
11 10.0 10.0
12 15.0 7.5
13 18.0 3.4
14 20.0 0.0
15 22.0 -4.4
EOF